node_cpu = array1d(1..10,[918, 992, 598, 553, 780, 664, 693, 922, 705, 854]);
node_memory = array1d(1..10,[1419, 859, 1894, 2039, 1307, 894, 990, 1105, 1090, 936]);
process_memory = array1d(1..20,[462, 100, 228, 87, 141, 431, 346, 228, 368, 243, 417, 113, 333, 242, 289, 496, 501, 105, 11, 414]);
process_links = array2d(1..20,1..20,[true, false, false, false, false, false, false, true, false, false, false, false, false, false, false, false, true, false, false, false, false, true, false, false, false, false, false, false, false, false, false, false, true, false, false, true, false, false, false, false, false, false, true, false, false, false, false, false, false, false, true, false, true, false, false, true, false, false, false, false, false, false, false, true, false, false, false, false, true, false, false, false, false, false, true, false, false, false, false, false, false, false, false, false, true, false, false, false, false, false, false, false, false, false, false, false, false, true, false, false, false, false, false, false, false, true, false, false, false, false, false, true, false, false, true, false, false, false, false, false, false, false, false, false, false, false, true, false, false, false, false, false, false, false, false, false, false, false, false, false, true, false, false, false, false, false, false, true, false, true, false, false, true, false, false, false, false, false, false, false, false, false, false, true, false, false, false, false, true, false, true, false, false, false, false, false, false, false, false, false, false, false, false, false, false, false, false, true, false, true, false, false, false, false, false, false, false, false, false, false, false, false, true, false, false, false, false, false, true, false, true, false, false, false, false, false, false, false, false, false, false, false, false, false, false, true, false, false, false, false, false, true, false, false, true, false, false, false, false, true, false, true, true, false, false, false, false, true, false, false, false, false, true, false, false, false, false, false, false, false, false, false, false, false, false, false, false, false, false, false, false, false, false, true, false, false, false, false, false, false, false, false, false, true, false, true, false, false, false, false, false, true, false, false, true, false, false, false, false, false, false, true, true, false, false, false, false, false, false, false, false, false, false, false, false, true, false, false, false, true, true, false, false, false, false, false, false, false, false, false, false, false, false, false, false, false, true, true, false, false, false, false, false, false, true, false, false, false, false, false, false, false, false, false, false, false, true, true, false, false, false, false, false, false, false, false, false, false, false, false, false, false, false, false, false, false, false, false, true, false, false, false, false, false, false, false, false, false, false, false, false, true, false, false, false, true, false, false, false, true]);
topology = array2d(1..10,1..10,[true, true, true, true, true, true, true, true, true, true, true, true, true, true, true, true, true, true, true, true, true, true, true, true, true, true, true, true, true, true, true, true, true, true, true, true, true, false, true, true, true, true, true, true, true, true, true, true, false, true, true, true, true, true, true, true, true, true, true, true, true, true, true, true, true, true, true, false, false, true, true, true, true, false, true, true, false, true, true, true, true, true, true, true, false, true, false, true, true, true, true, true, true, true, true, true, true, true, true, true]);
num_processes = 20;
num_nodes = 10;
process_load = array1d(1..20,[341, 215, 210, 359, 274, 152, 250, 512, 397, 445, 560, 229, 413, 112, 142, 279, 325, 453, 208, 122]);
